142 31 109 129 22 73 170 19 120 15 184 
194 165 173 87 58 134 127 115 11 83 27 124 
153 26 35 164 104 71 113 33 117 39 175 
53 38 32 112 86 41 55 107 76 64 
199 84 159 20 90 82 48 148 
54 180 139 192 143 154 60 30 149 
200 196 167 36 137 62 1 97 121 
100 66 155 29 166 195 50 108 81 70 102 77 
4 59 94 99 151 157 101 105 34 193 146 
133 147 40 16 179 110 79 178 96 141 92 
163 28 49 14 119 21 85 17 13 8 185 67 
174 88 118 69 176 191 24 183 80 116 95 2 63 161 
57 45 65 160 189 91 126 125 106 74 
182 169 89 188 52 187 93 135 10 122 
162 6 132 111 44 145 158 75 
156 131 7 18 3 136 150 
140 37 9 12 23 114 123 
42 197 172 5 25 46 138 186 
47 103 51 198 
152 68 190 144 
43 78 171 130 
128 177 168 
61 72 
98 
56 
181 

